(set-logic HORN)
(declare-fun state (Int Int (Array Int Int) Int Int Bool Bool Bool Int) Bool)
(assert (forall ((|E_5| Int) (|.y.9| Int) (|F_5| (Array Int Int)) (|D_5| Int) (|A_6| Int) (|.loc.10| Bool) (|.loc.11| Bool) (|.loc.12| Bool) (|G_5| Int) (|.loc.20| Bool) (|.loc.18| Bool) (|.loc.19| Bool) (|.y.17| Int) (|.y.16| Int) (|.y.13| Int) (|.y.15| (Array Int Int)) (|.y.14| Int) (|.xtv.1| Int)) (=> (and (and (not .loc.10) (not .loc.11)) (not .loc.12)) (state |E_5| |.y.9| |F_5| |D_5| |A_6| |.loc.10| |.loc.11| |.loc.12| |G_5|))))
(assert (forall ((|E_5| Int) (|.y.9| Int) (|F_5| (Array Int Int)) (|D_5| Int) (|A_6| Int) (|.loc.10| Bool) (|.loc.11| Bool) (|.loc.12| Bool) (|G_5| Int) (|.loc.20| Bool) (|.loc.18| Bool) (|.loc.19| Bool) (|.y.17| Int) (|.y.16| Int) (|.y.13| Int) (|.y.15| (Array Int Int)) (|.y.14| Int) (|.xtv.1| Int)) (=> (and (state |E_5| |.y.9| |F_5| |D_5| |A_6| |.loc.10| |.loc.11| |.loc.12| |G_5|) (let ((.def_19 (not .loc.10))) (let ((.def_20 (not .loc.11))) (let ((.def_26 (= (select F_5 G_5) 43))) (let ((.def_37 (<= E_5 0))) (let ((.def_38 (not .def_37))) (let ((.def_43 (or .def_37 (not (<= G_5 0))))) (let ((.def_44 (and (and (not (<= A_6 D_5)) (and (= (+ E_5 (+ D_5 (* (- 1) G_5))) 0) .def_38)) .def_43))) (let ((.def_50 (not .loc.18))) (let ((.def_53 (not .loc.19))) (let ((.def_60 (not .loc.20))) (let ((.def_64 (<= D_5 .y.9))) (let ((.def_67 (= E_5 .y.13))) (let ((.def_70 (= F_5 .y.15))) (let ((.def_97 (= .y.14 0))) (let ((.def_99 (= D_5 .y.16))) (let ((.def_104 (and .def_38 .def_43))) (let ((.def_115 (= (+ .y.9 (* (- 1) .y.14)) (- 1)))) (let ((.def_119 (= (+ E_5 (+ .y.9 (* (- 1) G_5))) 0))) (let ((.def_121 (not .def_64))) (and (not .loc.12) (or (or (or (or (and .loc.11 (or (or (and (and (and (and .loc.10 (and (not .def_26) .def_44)) .loc.20) .def_50) .def_53) (and (= D_5 .y.17) (and (and (and (and (= .y.16 0) (and .def_19 (and (and .loc.18 .loc.19) .def_60))) .def_64) .def_67) .def_70))) (and (= A_6 .y.17) (and (= (+ D_5 (* (- 1) .y.16)) (- 1)) (and .def_70 (and .def_67 (and .def_60 (and .loc.19 (and .loc.18 (and .loc.10 (and .def_26 .def_44))))))))))) (and (and (and .def_20 (and .def_70 (and .def_67 (and .def_64 (and .def_60 (and .def_50 (and .loc.10 .loc.19))))))) .def_97) .def_99)) (and (and (and (and (= .y.15 (store F_5 G_5 43)) (and .def_99 (and .def_67 (and .def_19 (and .def_60 (and .def_50 (and .loc.19 (and .loc.11 .def_104)))))))) .def_115) .def_119) .def_121)) (and (not (<= .y.13 0)) (and (not (<= .y.16 0)) (and .def_97 (and .def_20 (and .def_19 (and .def_60 (and .loc.18 .def_53)))))))) (and (= .y.15 (store F_5 G_5 42)) (and .def_121 (and .def_119 (and .def_115 (and .def_99 (and .def_20 (and .def_67 (and .def_60 (and .def_53 (and .loc.18 (and .loc.10 .def_104))))))))))))))))))))))))))))))))) (state |.y.13| |.y.14| |.y.15| |.y.16| |.y.17| |.loc.18| |.loc.19| |.loc.20| |.xtv.1|))))
(assert (forall ((|E_5| Int) (|.y.9| Int) (|F_5| (Array Int Int)) (|D_5| Int) (|A_6| Int) (|.loc.10| Bool) (|.loc.11| Bool) (|.loc.12| Bool) (|G_5| Int) (|.loc.20| Bool) (|.loc.18| Bool) (|.loc.19| Bool) (|.y.17| Int) (|.y.16| Int) (|.y.13| Int) (|.y.15| (Array Int Int)) (|.y.14| Int) (|.xtv.1| Int)) (=> (state |E_5| |.y.9| |F_5| |D_5| |A_6| |.loc.10| |.loc.11| |.loc.12| |G_5|) (not (and .loc.12 (and (not .loc.10) (not .loc.11)))))))
(check-sat)
